s td 66 7 72
b 1 11 12
b 2 61 62
b 3 1 2 14
b 4 2 3 14
b 5 3 4 5
b 6 5 6 7
b 7 7 8 9
b 8 9 10 11
b 9 9 11 24
b 10 13 14 26
b 11 9 23 24
b 12 25 26 38
b 13 23 35 36
b 14 37 38 50
b 15 35 47 48
b 16 49 50 62
b 17 47 59 60
b 18 50 62 63
b 19 50 63 64
b 20 64 65 66
b 21 66 67 68
b 22 68 69 70
b 23 70 71 72
b 24 59 70 72
b 25 7 9 22 23
b 26 3 5 17 31 42 56 70
b 27 5 17 31 42 45 56 70
b 28 5 17 31 45 56 59 70
b 29 5 17 19 31 45 59
b 30 5 19 31 33 45 59
b 31 5 19 33 45 47 59
b 32 5 19 33 35 47
b 33 5 19 21 33 35
b 34 5 7 19 21 35
b 35 7 19 20 21
b 36 7 21 23 35
b 37 7 21 22 23
b 38 21 33 34 35
b 39 33 45 46 47
b 40 19 31 32 33
b 41 5 17 18 19
b 42 45 56 58 59 70
b 43 56 57 58 70
b 44 31 42 44 45 56
b 45 42 43 44 56
b 46 3 17 28 31 42 56 70
b 47 3 14 17 28 42 56 70
b 48 3 14 16 17 28
b 49 14 15 16 28
b 50 14 28 42 56 68 70
b 51 14 28 42 54 56 68
b 52 14 28 40 42 54 68
b 53 14 26 28 40 54 68
b 54 26 27 28 40
b 55 26 40 54 66 68
b 56 26 40 52 54 66
b 57 26 38 40 52 66
b 58 38 39 40 52
b 59 38 52 64 66
b 60 38 51 52 64
b 61 52 53 54 66
b 62 40 41 42 54
b 63 54 55 56 68
b 64 17 28 29 31 42
b 65 17 29 30 31
b 66 38 50 51 64
1 9
2 18
3 4
4 47
5 26
6 34
7 25
8 9
9 11
10 53
11 25
12 57
13 36
14 66
15 32
16 18
17 31
18 19
19 66
20 59
21 55
22 50
23 24
24 28
25 37
26 27
26 46
27 28
27 44
28 29
28 42
29 30
29 41
30 31
30 40
31 32
31 39
32 33
33 34
33 38
34 35
34 36
36 37
42 43
44 45
46 47
46 64
47 48
47 50
48 49
50 51
51 52
51 63
52 53
52 62
53 54
53 55
55 56
56 57
56 61
57 58
57 59
59 60
60 66
64 65
